Route #1: 1 1 208 75 1 
Route #2: 1 97 51 64 1 
Route #3: 1 66 160 84 1 
Route #4: 1 81 204 113 1 
Route #5: 1 46 109 114 1 
Route #6: 1 127 115 164 1 
Route #7: 1 90 135 79 1 
Route #8: 1 214 202 121 1 
Route #9: 1 16 167 110 1 
Route #10: 1 107 132 192 1 
Route #11: 1 177 77 141 1 
Route #12: 1 87 124 193 1 
Route #13: 1 67 35 106 1 
Route #14: 1 6 206 140 1 
Route #15: 1 149 27 122 1 
Route #16: 1 157 39 32 1 
Route #17: 1 117 24 49 1 
Route #18: 1 26 179 189 1 
Route #19: 1 98 82 10 1 
Route #20: 1 47 123 170 1 
Route #21: 1 60 86 197 1 
Route #22: 1 62 139 108 1 
Route #23: 1 188 85 162 1 
Route #24: 1 194 120 196 1 
Route #25: 1 176 5 138 1 
Route #26: 1 55 151 54 1 
Route #27: 1 45 111 129 1 
Route #28: 1 101 163 142 1 
Route #29: 1 125 210 201 1 
Route #30: 1 147 183 131 1 
Route #31: 1 95 52 61 1 
Route #32: 1 9 191 4 1 
Route #33: 1 119 21 203 1 
Route #34: 1 158 198 59 1 
Route #35: 1 50 103 216 1 
Route #36: 1 211 134 207 1 
Route #37: 1 155 178 181 1 
Route #38: 1 215 8 63 1 
Route #39: 1 89 7 91 1 
Route #40: 1 173 30 180 1 
Route #41: 1 168 92 130 1 
Route #42: 1 44 187 42 1 
Route #43: 1 146 185 166 1 
Route #44: 1 13 56 99 1 
Route #45: 1 71 190 18 1 
Route #46: 1 78 205 218 1 
Route #47: 1 143 68 105 1 
Route #48: 1 93 112 3 1 
Route #49: 1 17 104 118 1 
Route #50: 1 48 41 20 1 
Route #51: 1 133 169 43 1 
Route #52: 1 83 116 88 1 
Route #53: 1 94 145 126 1 
Route #54: 1 34 156 171 1 
Route #55: 1 184 213 19 1 
Route #56: 1 73 80 174 1 
Route #57: 1 76 36 74 1 
Route #58: 1 186 100 28 1 
Route #59: 1 154 161 2 1 
Route #60: 1 195 182 199 1 
Route #61: 1 12 25 70 1 
Route #62: 1 137 53 217 1 
Route #63: 1 58 72 65 1 
Route #64: 1 23 29 14 1 
Route #65: 1 209 22 57 1 
Route #66: 1 144 200 148 1 
Route #67: 1 11 33 212 1 
Route #68: 1 102 31 152 1 
Route #69: 1 15 40 150 1 
Route #70: 1 38 175 159 1 
Route #71: 1 69 136 37 1 
Route #72: 1 128 96 153 1 
Route #73: 1 172 165 1 

Cost 100605
Time 0.0079


 * Other infos *

 Iterations: 219 Time: 0.0079 sec - 0.0001 min - 0.0000 horas
0.0000 h 0.0001 min
Problem dimension: 219
